NAME : random75.685.tour
COMMENT : Length = 685
COMMENT : Found by LKH [Keld Helsgaun] Thu Sep 26 21:22:02 2024
TYPE : TOUR
DIMENSION : 75
TOUR_SECTION
1
43
58
73
65
38
56
62
15
11
25
22
59
71
23
70
33
53
34
27
35
69
3
49
52
41
37
36
51
60
46
31
6
14
17
75
7
67
20
68
2
30
13
45
72
66
42
32
28
5
19
21
40
10
16
63
4
61
57
54
64
74
39
18
12
8
48
50
55
26
9
29
47
24
44
-1
EOF
